
Gurobi 10.0.3 (linux64, gurobi_cl) logging started Thu Nov  9 11:48:48 2023

Set parameter Username
Set parameter TimeLimit to value 3600
Set parameter LogFile to value "RCPSP_1198.log"
Set parameter Threads to value 32
Academic license - for non-commercial use only - expires 2024-10-30
Using license file /home/jrivera6/gurobi-licenses/v1003/compute-0-34/gurobi.lic

Gurobi Optimizer version 10.0.3 build v10.0.3rc0 (linux64)
Copyright (c) 2023, Gurobi Optimization, LLC

Read MPS format model from file RCPSP_1198.mps
Reading time = 0.09 seconds
RCPSP_1198: 42947 rows, 17020 columns, 142862 nonzeros

CPU model: Intel(R) Xeon(R) Gold 6130 CPU @ 2.10GHz, instruction set [SSE2|AVX|AVX2|AVX512]
Thread count: 32 physical cores, 32 logical processors, using up to 32 threads

Optimize a model with 42947 rows, 17020 columns and 142862 nonzeros
Model fingerprint: 0x14193736
Variable types: 92 continuous, 16928 integer (16928 binary)
Coefficient statistics:
  Matrix range     [1e+00, 5e+02]
  Objective range  [1e+00, 1e+00]
  Bounds range     [1e+00, 1e+00]
  RHS range        [1e+00, 5e+02]
Found heuristic solution: objective 88.0000000
Presolve removed 7032 rows and 1201 columns (presolve time = 5s) ...
Presolve removed 10123 rows and 3595 columns
Presolve time: 9.82s
Presolved: 32824 rows, 13425 columns, 111002 nonzeros
Variable types: 91 continuous, 13334 integer (13334 binary)

Explored 0 nodes (0 simplex iterations) in 9.99 seconds (4.14 work units)
Thread count was 32 (of 32 available processors)

Solution count 1: 88 

Optimal solution found (tolerance 1.00e-04)
Best objective 8.800000000000e+01, best bound 8.800000000000e+01, gap 0.0000%

Wrote result file 'RCPSP_1198.sol'

